Optimize a model with 1601 rows, 1680 columns and 10608 nonzeros
Model has 1 quadratic constraint
Coefficient statistics:
  Matrix range    [1e+00, 4e+01]
  Objective range [1e+02, 7e+02]
  Bounds range    [1e+00, 4e+01]
  RHS range       [1e+00, 4e+01]
Presolve removed 0 rows and 42 columns
Presolve time: 0.05s
Presolved: 3123 rows, 3159 columns, 16692 nonzeros
Variable types: 0 continuous, 3159 integer (3120 binary)

Root relaxation: objective 3.330000e+02, 70 iterations, 0.00 seconds

    Nodes    |    Current Node    |     Objective Bounds      |     Work
 Expl Unexpl |  Obj  Depth IntInf | Incumbent    BestBd   Gap | It/Node Time

     0     0  333.00000    0   34          -  333.00000      -     -    0s
     0     0  333.00000    0   34          -  333.00000      -     -    0s
     0     0  333.00000    0   34          -  333.00000      -     -    0s
     0     0  333.00000    0   36          -  333.00000      -     -    0s
     0     0  333.00000    0   34          -  333.00000      -     -    0s
     0     0  333.00000    0   34          -  333.00000      -     -    0s
     0     0  333.00000    0   37          -  333.00000      -     -    0s
     0     0  333.00000    0   37          -  333.00000      -     -    0s
H    0     0                    2514.0000000  333.00000  86.8%     -    0s
     0     2  333.00000    0   37 2514.00000  333.00000  86.8%     -    0s
H 1080  1080                    2419.0000000  333.00000  86.2%   1.4    4s
H 1161  1161                    2325.0000000  333.00000  85.7%   1.4    5s
* 1451  1326              34    2317.0000000 2265.34498  2.23%   2.3    6s
H 1553  1251                    2306.0000000 2278.05900  1.21%   3.1    7s

Explored 1788 nodes (9032 simplex iterations) in 7.38 seconds
Thread count was 1 (of 4 available processors)

Optimal solution found (tolerance 1.00e-04)
Best objective 2.306000000000e+03, best bound 2.306000000000e+03, gap 0.0%
2306
(0,2) (23,0) (2,31) (5,14) (38,5) (10,19) (28,10) (12,11) (11,13) (36,12) (13,23) (14,32) (15,17) (32,15) (17,20) (19,38) (20,29) (27,28) (31,27) (29,36) 
